(declare-datatypes (T1 T2 T3 T4 T5)
 ((Recv (mk-recv (match T1) (ep T2) (var T3) (event T4) (nearestwait T5)))))
(declare-datatypes (T1 T2 T3 T4)
((Send (mk-send (match T1) (ep T2) (value T3) (event T4)))))
(define-fun HB ((a Int) (b Int)) Bool
  (if(< a b)
 true
 false))

(define-fun MATCH ((r (Recv Int Int Int Int Int)) (s (Send Int Int Int Int))) Bool
(if(and (= (ep r) (ep s)) (= (var r) (value s))
(HB (event s) (nearestwait r)) (= (match r) (event s))
(= (match s) (event r)))
true
false
)
)

(declare-const T0_0 Int)
(declare-const T0_1 Int)
(declare-const T0_2 Int)
(declare-const buffer_0_0 Int)
(declare-const T0_3 Int)
(declare-const buffer_0_1 Int)
(declare-const T0_4 Int)
(declare-const buffer_0_2 Int)
(declare-const T0_5 Int)
(declare-const buffer_0_3 Int)
(declare-const T0_6 Int)
(declare-const buffer_0_4 Int)
(declare-const T0_7 Int)
(declare-const buffer_0_5 Int)
(declare-const T0_8 Int)
(declare-const buffer_0_6 Int)
(declare-const T0_9 Int)
(declare-const buffer_0_7 Int)
(declare-const T0_10 Int)
(declare-const buffer_0_8 Int)
(declare-const T0_11 Int)
(declare-const T0_12 Int)
(declare-const T0_13 Int)
(declare-const T0_14 Int)
(declare-const T0_15 Int)
(declare-const T0_16 Int)
(declare-const T0_17 Int)
(declare-const T0_18 Int)
(declare-const T0_19 Int)
(declare-const buffer_0_9 Int)
(declare-const T0_20 Int)
(declare-const buffer_0_10 Int)
(declare-const T0_21 Int)
(declare-const buffer_0_11 Int)
(declare-const T0_22 Int)
(declare-const buffer_0_12 Int)
(declare-const T0_23 Int)
(declare-const buffer_0_13 Int)
(declare-const T0_24 Int)
(declare-const buffer_0_14 Int)
(declare-const T0_25 Int)
(declare-const buffer_0_15 Int)
(declare-const T0_26 Int)
(declare-const T0_27 Int)
(declare-const T0_28 Int)
(declare-const T0_29 Int)
(declare-const T0_30 Int)
(declare-const T0_31 Int)
(declare-const T0_32 Int)
(declare-const T0_33 Int)
(declare-const T0_34 Int)
(declare-const T0_35 Int)
(declare-const T0_36 Int)
(declare-const T0_37 Int)
(declare-const T0_38 Int)
(declare-const T0_39 Int)
(declare-const buffer_0_16 Int)
(declare-const T0_40 Int)
(declare-const buffer_0_17 Int)
(declare-const T0_41 Int)
(declare-const buffer_0_18 Int)
(declare-const T0_42 Int)
(declare-const buffer_0_19 Int)
(declare-const T0_43 Int)
(declare-const buffer_0_20 Int)
(declare-const T0_44 Int)
(declare-const buffer_0_21 Int)
(declare-const T0_45 Int)
(declare-const T0_46 Int)
(declare-const T0_47 Int)
(declare-const T0_48 Int)
(declare-const T0_49 Int)
(declare-const T0_50 Int)
(declare-const T0_51 Int)
(declare-const T0_52 Int)
(declare-const T0_53 Int)
(declare-const buffer_0_22 Int)
(declare-const T0_54 Int)
(declare-const buffer_0_23 Int)
(declare-const T0_55 Int)
(declare-const buffer_0_24 Int)
(declare-const T0_56 Int)
(declare-const buffer_0_25 Int)
(declare-const T0_57 Int)
(declare-const buffer_0_26 Int)
(declare-const T0_58 Int)
(declare-const buffer_0_27 Int)
(declare-const T0_59 Int)
(declare-const buffer_0_28 Int)
(declare-const T0_60 Int)
(declare-const buffer_0_29 Int)
(declare-const T0_61 Int)
(declare-const buffer_0_30 Int)
(declare-const T0_62 Int)
(declare-const buffer_0_31 Int)
(declare-const T0_63 Int)
(declare-const buffer_0_32 Int)
(declare-const T0_64 Int)
(declare-const buffer_0_33 Int)
(declare-const T0_65 Int)
(declare-const buffer_0_34 Int)
(declare-const T0_66 Int)
(declare-const buffer_0_35 Int)
(declare-const T0_67 Int)
(declare-const buffer_0_36 Int)
(declare-const T0_68 Int)
(declare-const buffer_0_37 Int)
(declare-const T0_69 Int)
(declare-const buffer_0_38 Int)
(declare-const T0_70 Int)
(declare-const buffer_0_39 Int)
(declare-const T0_71 Int)
(declare-const buffer_0_40 Int)
(declare-const T0_72 Int)
(declare-const buffer_0_41 Int)
(declare-const T0_73 Int)
(declare-const buffer_0_42 Int)
(declare-const T0_74 Int)
(declare-const buffer_0_43 Int)
(declare-const T0_75 Int)
(declare-const buffer_0_44 Int)
(declare-const T0_76 Int)
(declare-const buffer_0_45 Int)
(declare-const T0_77 Int)
(declare-const buffer_0_46 Int)
(declare-const T0_78 Int)
(declare-const T0_79 Int)
(declare-const T0_80 Int)
(declare-const T0_81 Int)
(declare-const buffer_0_47 Int)
(declare-const T0_82 Int)
(declare-const buffer_0_48 Int)
(declare-const T0_83 Int)
(declare-const buffer_0_49 Int)
(declare-const T0_84 Int)
(declare-const T0_85 Int)
(declare-const T0_86 Int)
(declare-const T0_87 Int)
(declare-const buffer_0_50 Int)
(declare-const T0_88 Int)
(declare-const buffer_0_51 Int)
(declare-const T0_89 Int)
(declare-const buffer_0_52 Int)
(declare-const T0_90 Int)
(declare-const buffer_0_53 Int)
(declare-const T0_91 Int)
(declare-const buffer_0_54 Int)
(declare-const T0_92 Int)
(declare-const buffer_0_55 Int)
(declare-const T0_93 Int)
(declare-const T0_94 Int)
(declare-const T0_95 Int)
(declare-const T0_96 Int)
(declare-const T0_97 Int)
(declare-const T0_98 Int)
(declare-const T0_99 Int)
(declare-const T0_100 Int)
(declare-const T0_101 Int)
(declare-const T0_102 Int)
(declare-const T0_103 Int)
(declare-const T0_104 Int)
(declare-const T0_105 Int)
(declare-const T0_106 Int)
(declare-const T0_107 Int)
(declare-const T0_108 Int)
(declare-const T0_109 Int)
(declare-const T0_110 Int)
(declare-const buffer_0_56 Int)
(declare-const T0_111 Int)
(declare-const buffer_0_57 Int)
(declare-const T0_112 Int)
(declare-const buffer_0_58 Int)
(declare-const T0_113 Int)
(declare-const buffer_0_59 Int)
(declare-const T0_114 Int)
(declare-const buffer_0_60 Int)
(declare-const T0_115 Int)
(declare-const buffer_0_61 Int)
(declare-const T0_116 Int)
(declare-const buffer_0_62 Int)
(declare-const T0_117 Int)
(declare-const T0_118 Int)
(declare-const T0_119 Int)
(declare-const T0_120 Int)
(declare-const T0_121 Int)
(declare-const T0_122 Int)
(declare-const T0_123 Int)
(declare-const T0_124 Int)
(declare-const T0_125 Int)
(declare-const T0_126 Int)
(declare-const T0_127 Int)
(declare-const T0_128 Int)
(declare-const T0_129 Int)
(declare-const T0_130 Int)
(declare-const T0_131 Int)
(declare-const T0_132 Int)
(declare-const T0_133 Int)
(declare-const T0_134 Int)
(declare-const T0_135 Int)
(declare-const T0_136 Int)
(declare-const T0_137 Int)
(declare-const T0_138 Int)
(declare-const T0_139 Int)
(declare-const T0_140 Int)
(declare-const T0_141 Int)
(declare-const T0_142 Int)
(declare-const T0_143 Int)
(declare-const T0_144 Int)
(declare-const T0_145 Int)
(declare-const T0_146 Int)
(declare-const T0_147 Int)
(declare-const T0_148 Int)
(declare-const T0_149 Int)
(declare-const T0_150 Int)
(declare-const T0_151 Int)
(declare-const T0_152 Int)
(declare-const T0_153 Int)
(declare-const T0_154 Int)
(declare-const T0_155 Int)
(declare-const T0_156 Int)
(declare-const T0_157 Int)
(declare-const T0_158 Int)
(declare-const T0_159 Int)
(declare-const T0_160 Int)
(declare-const T0_161 Int)
(declare-const T0_162 Int)
(declare-const T0_163 Int)
(declare-const T0_164 Int)
(declare-const T0_165 Int)
(declare-const T0_166 Int)
(declare-const T0_167 Int)
(declare-const T0_168 Int)
(declare-const T0_169 Int)
(declare-const T0_170 Int)
(declare-const T0_171 Int)
(declare-const T0_172 Int)
(declare-const T0_173 Int)
(declare-const T0_174 Int)
(declare-const T0_175 Int)
(declare-const T0_176 Int)
(declare-const T0_177 Int)
(declare-const T0_178 Int)
(declare-const T0_179 Int)
(declare-const T0_180 Int)
(declare-const T0_181 Int)
(declare-const T0_182 Int)
(declare-const T0_183 Int)
(declare-const T0_184 Int)
(declare-const T0_185 Int)
(declare-const T0_186 Int)
(declare-const T0_187 Int)
(declare-const T0_188 Int)
(declare-const T0_189 Int)
(declare-const T0_190 Int)
(declare-const T0_191 Int)
(declare-const T0_192 Int)
(declare-const T0_193 Int)
(declare-const T0_194 Int)
(declare-const T0_195 Int)
(declare-const T0_196 Int)
(declare-const T0_197 Int)
(declare-const T0_198 Int)
(declare-const T0_199 Int)
(declare-const T0_200 Int)
(declare-const T0_201 Int)
(declare-const T0_202 Int)
(declare-const T0_203 Int)
(declare-const T0_204 Int)
(declare-const T0_205 Int)
(declare-const T0_206 Int)
(declare-const T0_207 Int)
(declare-const T0_208 Int)
(declare-const T0_209 Int)
(declare-const T0_210 Int)
(declare-const T0_211 Int)
(declare-const T0_212 Int)
(declare-const T0_213 Int)
(declare-const T0_214 Int)
(declare-const T0_215 Int)
(declare-const T0_216 Int)
(declare-const T0_217 Int)
(declare-const T0_218 Int)
(declare-const T0_219 Int)
(declare-const T0_220 Int)
(declare-const T0_221 Int)
(declare-const T0_222 Int)
(declare-const T0_223 Int)
(declare-const T0_224 Int)
(declare-const T0_225 Int)
(declare-const T0_226 Int)
(declare-const T0_227 Int)
(declare-const T0_228 Int)
(declare-const T0_229 Int)
(declare-const T0_230 Int)
(declare-const T0_231 Int)
(declare-const T0_232 Int)
(declare-const T0_233 Int)
(declare-const T0_234 Int)
(declare-const T0_235 Int)
(declare-const T0_236 Int)
(declare-const T0_237 Int)
(declare-const T0_238 Int)
(declare-const T0_239 Int)
(declare-const T0_240 Int)
(declare-const T0_241 Int)
(declare-const T0_242 Int)
(declare-const T0_243 Int)
(declare-const T0_244 Int)
(declare-const T0_245 Int)
(declare-const T0_246 Int)
(declare-const T0_247 Int)
(declare-const T0_248 Int)
(declare-const T0_249 Int)
(declare-const T0_250 Int)
(declare-const T0_251 Int)

(declare-const sendT0_0 (Send Int Int Int Int))
(assert (and (= (ep sendT0_0) 0) (= (event sendT0_0) T0_0) (= (value sendT0_0) 0)))
(declare-const sendT0_1 (Send Int Int Int Int))
(assert (and (= (ep sendT0_1) 0) (= (event sendT0_1) T0_1) (= (value sendT0_1) 1)))
(declare-const recvT0_2 (Recv Int Int Int Int Int))
(assert (and (= (ep recvT0_2) 0) (= (event recvT0_2) T0_2) (= (var recvT0_2) buffer_0_0)))
(declare-const recvT0_3 (Recv Int Int Int Int Int))
(assert (and (= (ep recvT0_3) 0) (= (event recvT0_3) T0_3) (= (var recvT0_3) buffer_0_1)))
(declare-const recvT0_4 (Recv Int Int Int Int Int))
(assert (and (= (ep recvT0_4) 0) (= (event recvT0_4) T0_4) (= (var recvT0_4) buffer_0_2)))
(declare-const recvT0_5 (Recv Int Int Int Int Int))
(assert (and (= (ep recvT0_5) 0) (= (event recvT0_5) T0_5) (= (var recvT0_5) buffer_0_3)))
(declare-const recvT0_6 (Recv Int Int Int Int Int))
(assert (and (= (ep recvT0_6) 0) (= (event recvT0_6) T0_6) (= (var recvT0_6) buffer_0_4)))
(declare-const recvT0_7 (Recv Int Int Int Int Int))
(assert (and (= (ep recvT0_7) 0) (= (event recvT0_7) T0_7) (= (var recvT0_7) buffer_0_5)))
(declare-const recvT0_8 (Recv Int Int Int Int Int))
(assert (and (= (ep recvT0_8) 0) (= (event recvT0_8) T0_8) (= (var recvT0_8) buffer_0_6)))
(declare-const recvT0_9 (Recv Int Int Int Int Int))
(assert (and (= (ep recvT0_9) 0) (= (event recvT0_9) T0_9) (= (var recvT0_9) buffer_0_7)))
(declare-const recvT0_10 (Recv Int Int Int Int Int))
(assert (and (= (ep recvT0_10) 0) (= (event recvT0_10) T0_10) (= (var recvT0_10) buffer_0_8)))
(declare-const sendT0_11 (Send Int Int Int Int))
(assert (and (= (ep sendT0_11) 0) (= (event sendT0_11) T0_11) (= (value sendT0_11) 2)))
(declare-const sendT0_12 (Send Int Int Int Int))
(assert (and (= (ep sendT0_12) 0) (= (event sendT0_12) T0_12) (= (value sendT0_12) 3)))
(declare-const sendT0_13 (Send Int Int Int Int))
(assert (and (= (ep sendT0_13) 0) (= (event sendT0_13) T0_13) (= (value sendT0_13) 4)))
(declare-const sendT0_14 (Send Int Int Int Int))
(assert (and (= (ep sendT0_14) 0) (= (event sendT0_14) T0_14) (= (value sendT0_14) 5)))
(declare-const sendT0_15 (Send Int Int Int Int))
(assert (and (= (ep sendT0_15) 0) (= (event sendT0_15) T0_15) (= (value sendT0_15) 6)))
(declare-const sendT0_16 (Send Int Int Int Int))
(assert (and (= (ep sendT0_16) 0) (= (event sendT0_16) T0_16) (= (value sendT0_16) 7)))
(declare-const sendT0_17 (Send Int Int Int Int))
(assert (and (= (ep sendT0_17) 0) (= (event sendT0_17) T0_17) (= (value sendT0_17) 8)))
(declare-const sendT0_18 (Send Int Int Int Int))
(assert (and (= (ep sendT0_18) 0) (= (event sendT0_18) T0_18) (= (value sendT0_18) 9)))
(declare-const recvT0_19 (Recv Int Int Int Int Int))
(assert (and (= (ep recvT0_19) 0) (= (event recvT0_19) T0_19) (= (var recvT0_19) buffer_0_9)))
(declare-const recvT0_20 (Recv Int Int Int Int Int))
(assert (and (= (ep recvT0_20) 0) (= (event recvT0_20) T0_20) (= (var recvT0_20) buffer_0_10)))
(declare-const recvT0_21 (Recv Int Int Int Int Int))
(assert (and (= (ep recvT0_21) 0) (= (event recvT0_21) T0_21) (= (var recvT0_21) buffer_0_11)))
(declare-const recvT0_22 (Recv Int Int Int Int Int))
(assert (and (= (ep recvT0_22) 0) (= (event recvT0_22) T0_22) (= (var recvT0_22) buffer_0_12)))
(declare-const recvT0_23 (Recv Int Int Int Int Int))
(assert (and (= (ep recvT0_23) 0) (= (event recvT0_23) T0_23) (= (var recvT0_23) buffer_0_13)))
(declare-const recvT0_24 (Recv Int Int Int Int Int))
(assert (and (= (ep recvT0_24) 0) (= (event recvT0_24) T0_24) (= (var recvT0_24) buffer_0_14)))
(declare-const recvT0_25 (Recv Int Int Int Int Int))
(assert (and (= (ep recvT0_25) 0) (= (event recvT0_25) T0_25) (= (var recvT0_25) buffer_0_15)))
(declare-const sendT0_26 (Send Int Int Int Int))
(assert (and (= (ep sendT0_26) 0) (= (event sendT0_26) T0_26) (= (value sendT0_26) 10)))
(declare-const sendT0_27 (Send Int Int Int Int))
(assert (and (= (ep sendT0_27) 0) (= (event sendT0_27) T0_27) (= (value sendT0_27) 11)))
(declare-const sendT0_28 (Send Int Int Int Int))
(assert (and (= (ep sendT0_28) 0) (= (event sendT0_28) T0_28) (= (value sendT0_28) 12)))
(declare-const sendT0_29 (Send Int Int Int Int))
(assert (and (= (ep sendT0_29) 0) (= (event sendT0_29) T0_29) (= (value sendT0_29) 13)))
(declare-const sendT0_30 (Send Int Int Int Int))
(assert (and (= (ep sendT0_30) 0) (= (event sendT0_30) T0_30) (= (value sendT0_30) 14)))
(declare-const sendT0_31 (Send Int Int Int Int))
(assert (and (= (ep sendT0_31) 0) (= (event sendT0_31) T0_31) (= (value sendT0_31) 15)))
(declare-const sendT0_32 (Send Int Int Int Int))
(assert (and (= (ep sendT0_32) 0) (= (event sendT0_32) T0_32) (= (value sendT0_32) 16)))
(declare-const sendT0_33 (Send Int Int Int Int))
(assert (and (= (ep sendT0_33) 0) (= (event sendT0_33) T0_33) (= (value sendT0_33) 17)))
(declare-const sendT0_34 (Send Int Int Int Int))
(assert (and (= (ep sendT0_34) 0) (= (event sendT0_34) T0_34) (= (value sendT0_34) 18)))
(declare-const sendT0_35 (Send Int Int Int Int))
(assert (and (= (ep sendT0_35) 0) (= (event sendT0_35) T0_35) (= (value sendT0_35) 19)))
(declare-const sendT0_36 (Send Int Int Int Int))
(assert (and (= (ep sendT0_36) 0) (= (event sendT0_36) T0_36) (= (value sendT0_36) 20)))
(declare-const sendT0_37 (Send Int Int Int Int))
(assert (and (= (ep sendT0_37) 0) (= (event sendT0_37) T0_37) (= (value sendT0_37) 21)))
(declare-const sendT0_38 (Send Int Int Int Int))
(assert (and (= (ep sendT0_38) 0) (= (event sendT0_38) T0_38) (= (value sendT0_38) 22)))
(declare-const recvT0_39 (Recv Int Int Int Int Int))
(assert (and (= (ep recvT0_39) 0) (= (event recvT0_39) T0_39) (= (var recvT0_39) buffer_0_16)))
(declare-const recvT0_40 (Recv Int Int Int Int Int))
(assert (and (= (ep recvT0_40) 0) (= (event recvT0_40) T0_40) (= (var recvT0_40) buffer_0_17)))
(declare-const recvT0_41 (Recv Int Int Int Int Int))
(assert (and (= (ep recvT0_41) 0) (= (event recvT0_41) T0_41) (= (var recvT0_41) buffer_0_18)))
(declare-const recvT0_42 (Recv Int Int Int Int Int))
(assert (and (= (ep recvT0_42) 0) (= (event recvT0_42) T0_42) (= (var recvT0_42) buffer_0_19)))
(declare-const recvT0_43 (Recv Int Int Int Int Int))
(assert (and (= (ep recvT0_43) 0) (= (event recvT0_43) T0_43) (= (var recvT0_43) buffer_0_20)))
(declare-const recvT0_44 (Recv Int Int Int Int Int))
(assert (and (= (ep recvT0_44) 0) (= (event recvT0_44) T0_44) (= (var recvT0_44) buffer_0_21)))
(declare-const sendT0_45 (Send Int Int Int Int))
(assert (and (= (ep sendT0_45) 0) (= (event sendT0_45) T0_45) (= (value sendT0_45) 23)))
(declare-const sendT0_46 (Send Int Int Int Int))
(assert (and (= (ep sendT0_46) 0) (= (event sendT0_46) T0_46) (= (value sendT0_46) 24)))
(declare-const sendT0_47 (Send Int Int Int Int))
(assert (and (= (ep sendT0_47) 0) (= (event sendT0_47) T0_47) (= (value sendT0_47) 25)))
(declare-const sendT0_48 (Send Int Int Int Int))
(assert (and (= (ep sendT0_48) 0) (= (event sendT0_48) T0_48) (= (value sendT0_48) 26)))
(declare-const sendT0_49 (Send Int Int Int Int))
(assert (and (= (ep sendT0_49) 0) (= (event sendT0_49) T0_49) (= (value sendT0_49) 27)))
(declare-const sendT0_50 (Send Int Int Int Int))
(assert (and (= (ep sendT0_50) 0) (= (event sendT0_50) T0_50) (= (value sendT0_50) 28)))
(declare-const sendT0_51 (Send Int Int Int Int))
(assert (and (= (ep sendT0_51) 0) (= (event sendT0_51) T0_51) (= (value sendT0_51) 29)))
(declare-const sendT0_52 (Send Int Int Int Int))
(assert (and (= (ep sendT0_52) 0) (= (event sendT0_52) T0_52) (= (value sendT0_52) 30)))
(declare-const recvT0_53 (Recv Int Int Int Int Int))
(assert (and (= (ep recvT0_53) 0) (= (event recvT0_53) T0_53) (= (var recvT0_53) buffer_0_22)))
(declare-const recvT0_54 (Recv Int Int Int Int Int))
(assert (and (= (ep recvT0_54) 0) (= (event recvT0_54) T0_54) (= (var recvT0_54) buffer_0_23)))
(declare-const recvT0_55 (Recv Int Int Int Int Int))
(assert (and (= (ep recvT0_55) 0) (= (event recvT0_55) T0_55) (= (var recvT0_55) buffer_0_24)))
(declare-const recvT0_56 (Recv Int Int Int Int Int))
(assert (and (= (ep recvT0_56) 0) (= (event recvT0_56) T0_56) (= (var recvT0_56) buffer_0_25)))
(declare-const recvT0_57 (Recv Int Int Int Int Int))
(assert (and (= (ep recvT0_57) 0) (= (event recvT0_57) T0_57) (= (var recvT0_57) buffer_0_26)))
(declare-const recvT0_58 (Recv Int Int Int Int Int))
(assert (and (= (ep recvT0_58) 0) (= (event recvT0_58) T0_58) (= (var recvT0_58) buffer_0_27)))
(declare-const recvT0_59 (Recv Int Int Int Int Int))
(assert (and (= (ep recvT0_59) 0) (= (event recvT0_59) T0_59) (= (var recvT0_59) buffer_0_28)))
(declare-const recvT0_60 (Recv Int Int Int Int Int))
(assert (and (= (ep recvT0_60) 0) (= (event recvT0_60) T0_60) (= (var recvT0_60) buffer_0_29)))
(declare-const recvT0_61 (Recv Int Int Int Int Int))
(assert (and (= (ep recvT0_61) 0) (= (event recvT0_61) T0_61) (= (var recvT0_61) buffer_0_30)))
(declare-const recvT0_62 (Recv Int Int Int Int Int))
(assert (and (= (ep recvT0_62) 0) (= (event recvT0_62) T0_62) (= (var recvT0_62) buffer_0_31)))
(declare-const recvT0_63 (Recv Int Int Int Int Int))
(assert (and (= (ep recvT0_63) 0) (= (event recvT0_63) T0_63) (= (var recvT0_63) buffer_0_32)))
(declare-const recvT0_64 (Recv Int Int Int Int Int))
(assert (and (= (ep recvT0_64) 0) (= (event recvT0_64) T0_64) (= (var recvT0_64) buffer_0_33)))
(declare-const recvT0_65 (Recv Int Int Int Int Int))
(assert (and (= (ep recvT0_65) 0) (= (event recvT0_65) T0_65) (= (var recvT0_65) buffer_0_34)))
(declare-const recvT0_66 (Recv Int Int Int Int Int))
(assert (and (= (ep recvT0_66) 0) (= (event recvT0_66) T0_66) (= (var recvT0_66) buffer_0_35)))
(declare-const recvT0_67 (Recv Int Int Int Int Int))
(assert (and (= (ep recvT0_67) 0) (= (event recvT0_67) T0_67) (= (var recvT0_67) buffer_0_36)))
(declare-const recvT0_68 (Recv Int Int Int Int Int))
(assert (and (= (ep recvT0_68) 0) (= (event recvT0_68) T0_68) (= (var recvT0_68) buffer_0_37)))
(declare-const recvT0_69 (Recv Int Int Int Int Int))
(assert (and (= (ep recvT0_69) 0) (= (event recvT0_69) T0_69) (= (var recvT0_69) buffer_0_38)))
(declare-const recvT0_70 (Recv Int Int Int Int Int))
(assert (and (= (ep recvT0_70) 0) (= (event recvT0_70) T0_70) (= (var recvT0_70) buffer_0_39)))
(declare-const recvT0_71 (Recv Int Int Int Int Int))
(assert (and (= (ep recvT0_71) 0) (= (event recvT0_71) T0_71) (= (var recvT0_71) buffer_0_40)))
(declare-const recvT0_72 (Recv Int Int Int Int Int))
(assert (and (= (ep recvT0_72) 0) (= (event recvT0_72) T0_72) (= (var recvT0_72) buffer_0_41)))
(declare-const recvT0_73 (Recv Int Int Int Int Int))
(assert (and (= (ep recvT0_73) 0) (= (event recvT0_73) T0_73) (= (var recvT0_73) buffer_0_42)))
(declare-const recvT0_74 (Recv Int Int Int Int Int))
(assert (and (= (ep recvT0_74) 0) (= (event recvT0_74) T0_74) (= (var recvT0_74) buffer_0_43)))
(declare-const recvT0_75 (Recv Int Int Int Int Int))
(assert (and (= (ep recvT0_75) 0) (= (event recvT0_75) T0_75) (= (var recvT0_75) buffer_0_44)))
(declare-const recvT0_76 (Recv Int Int Int Int Int))
(assert (and (= (ep recvT0_76) 0) (= (event recvT0_76) T0_76) (= (var recvT0_76) buffer_0_45)))
(declare-const recvT0_77 (Recv Int Int Int Int Int))
(assert (and (= (ep recvT0_77) 0) (= (event recvT0_77) T0_77) (= (var recvT0_77) buffer_0_46)))
(declare-const sendT0_78 (Send Int Int Int Int))
(assert (and (= (ep sendT0_78) 0) (= (event sendT0_78) T0_78) (= (value sendT0_78) 31)))
(declare-const sendT0_79 (Send Int Int Int Int))
(assert (and (= (ep sendT0_79) 0) (= (event sendT0_79) T0_79) (= (value sendT0_79) 32)))
(declare-const sendT0_80 (Send Int Int Int Int))
(assert (and (= (ep sendT0_80) 0) (= (event sendT0_80) T0_80) (= (value sendT0_80) 33)))
(declare-const recvT0_81 (Recv Int Int Int Int Int))
(assert (and (= (ep recvT0_81) 0) (= (event recvT0_81) T0_81) (= (var recvT0_81) buffer_0_47)))
(declare-const recvT0_82 (Recv Int Int Int Int Int))
(assert (and (= (ep recvT0_82) 0) (= (event recvT0_82) T0_82) (= (var recvT0_82) buffer_0_48)))
(declare-const recvT0_83 (Recv Int Int Int Int Int))
(assert (and (= (ep recvT0_83) 0) (= (event recvT0_83) T0_83) (= (var recvT0_83) buffer_0_49)))
(declare-const sendT0_84 (Send Int Int Int Int))
(assert (and (= (ep sendT0_84) 0) (= (event sendT0_84) T0_84) (= (value sendT0_84) 34)))
(declare-const sendT0_85 (Send Int Int Int Int))
(assert (and (= (ep sendT0_85) 0) (= (event sendT0_85) T0_85) (= (value sendT0_85) 35)))
(declare-const sendT0_86 (Send Int Int Int Int))
(assert (and (= (ep sendT0_86) 0) (= (event sendT0_86) T0_86) (= (value sendT0_86) 36)))
(declare-const recvT0_87 (Recv Int Int Int Int Int))
(assert (and (= (ep recvT0_87) 0) (= (event recvT0_87) T0_87) (= (var recvT0_87) buffer_0_50)))
(declare-const recvT0_88 (Recv Int Int Int Int Int))
(assert (and (= (ep recvT0_88) 0) (= (event recvT0_88) T0_88) (= (var recvT0_88) buffer_0_51)))
(declare-const recvT0_89 (Recv Int Int Int Int Int))
(assert (and (= (ep recvT0_89) 0) (= (event recvT0_89) T0_89) (= (var recvT0_89) buffer_0_52)))
(declare-const recvT0_90 (Recv Int Int Int Int Int))
(assert (and (= (ep recvT0_90) 0) (= (event recvT0_90) T0_90) (= (var recvT0_90) buffer_0_53)))
(declare-const recvT0_91 (Recv Int Int Int Int Int))
(assert (and (= (ep recvT0_91) 0) (= (event recvT0_91) T0_91) (= (var recvT0_91) buffer_0_54)))
(declare-const recvT0_92 (Recv Int Int Int Int Int))
(assert (and (= (ep recvT0_92) 0) (= (event recvT0_92) T0_92) (= (var recvT0_92) buffer_0_55)))
(declare-const sendT0_93 (Send Int Int Int Int))
(assert (and (= (ep sendT0_93) 0) (= (event sendT0_93) T0_93) (= (value sendT0_93) 37)))
(declare-const sendT0_94 (Send Int Int Int Int))
(assert (and (= (ep sendT0_94) 0) (= (event sendT0_94) T0_94) (= (value sendT0_94) 38)))
(declare-const sendT0_95 (Send Int Int Int Int))
(assert (and (= (ep sendT0_95) 0) (= (event sendT0_95) T0_95) (= (value sendT0_95) 39)))
(declare-const sendT0_96 (Send Int Int Int Int))
(assert (and (= (ep sendT0_96) 0) (= (event sendT0_96) T0_96) (= (value sendT0_96) 40)))
(declare-const sendT0_97 (Send Int Int Int Int))
(assert (and (= (ep sendT0_97) 0) (= (event sendT0_97) T0_97) (= (value sendT0_97) 41)))
(declare-const sendT0_98 (Send Int Int Int Int))
(assert (and (= (ep sendT0_98) 0) (= (event sendT0_98) T0_98) (= (value sendT0_98) 42)))
(declare-const sendT0_99 (Send Int Int Int Int))
(assert (and (= (ep sendT0_99) 0) (= (event sendT0_99) T0_99) (= (value sendT0_99) 43)))
(declare-const sendT0_100 (Send Int Int Int Int))
(assert (and (= (ep sendT0_100) 0) (= (event sendT0_100) T0_100) (= (value sendT0_100) 44)))
(declare-const sendT0_101 (Send Int Int Int Int))
(assert (and (= (ep sendT0_101) 0) (= (event sendT0_101) T0_101) (= (value sendT0_101) 45)))
(declare-const sendT0_102 (Send Int Int Int Int))
(assert (and (= (ep sendT0_102) 0) (= (event sendT0_102) T0_102) (= (value sendT0_102) 46)))
(declare-const sendT0_103 (Send Int Int Int Int))
(assert (and (= (ep sendT0_103) 0) (= (event sendT0_103) T0_103) (= (value sendT0_103) 47)))
(declare-const sendT0_104 (Send Int Int Int Int))
(assert (and (= (ep sendT0_104) 0) (= (event sendT0_104) T0_104) (= (value sendT0_104) 48)))
(declare-const sendT0_105 (Send Int Int Int Int))
(assert (and (= (ep sendT0_105) 0) (= (event sendT0_105) T0_105) (= (value sendT0_105) 49)))
(declare-const sendT0_106 (Send Int Int Int Int))
(assert (and (= (ep sendT0_106) 0) (= (event sendT0_106) T0_106) (= (value sendT0_106) 50)))
(declare-const sendT0_107 (Send Int Int Int Int))
(assert (and (= (ep sendT0_107) 0) (= (event sendT0_107) T0_107) (= (value sendT0_107) 51)))
(declare-const sendT0_108 (Send Int Int Int Int))
(assert (and (= (ep sendT0_108) 0) (= (event sendT0_108) T0_108) (= (value sendT0_108) 52)))
(declare-const sendT0_109 (Send Int Int Int Int))
(assert (and (= (ep sendT0_109) 0) (= (event sendT0_109) T0_109) (= (value sendT0_109) 53)))
(declare-const recvT0_110 (Recv Int Int Int Int Int))
(assert (and (= (ep recvT0_110) 0) (= (event recvT0_110) T0_110) (= (var recvT0_110) buffer_0_56)))
(declare-const recvT0_111 (Recv Int Int Int Int Int))
(assert (and (= (ep recvT0_111) 0) (= (event recvT0_111) T0_111) (= (var recvT0_111) buffer_0_57)))
(declare-const recvT0_112 (Recv Int Int Int Int Int))
(assert (and (= (ep recvT0_112) 0) (= (event recvT0_112) T0_112) (= (var recvT0_112) buffer_0_58)))
(declare-const recvT0_113 (Recv Int Int Int Int Int))
(assert (and (= (ep recvT0_113) 0) (= (event recvT0_113) T0_113) (= (var recvT0_113) buffer_0_59)))
(declare-const recvT0_114 (Recv Int Int Int Int Int))
(assert (and (= (ep recvT0_114) 0) (= (event recvT0_114) T0_114) (= (var recvT0_114) buffer_0_60)))
(declare-const recvT0_115 (Recv Int Int Int Int Int))
(assert (and (= (ep recvT0_115) 0) (= (event recvT0_115) T0_115) (= (var recvT0_115) buffer_0_61)))
(declare-const recvT0_116 (Recv Int Int Int Int Int))
(assert (and (= (ep recvT0_116) 0) (= (event recvT0_116) T0_116) (= (var recvT0_116) buffer_0_62)))
(declare-const sendT0_117 (Send Int Int Int Int))
(assert (and (= (ep sendT0_117) 0) (= (event sendT0_117) T0_117) (= (value sendT0_117) 54)))
(declare-const sendT0_118 (Send Int Int Int Int))
(assert (and (= (ep sendT0_118) 0) (= (event sendT0_118) T0_118) (= (value sendT0_118) 55)))
(declare-const sendT0_119 (Send Int Int Int Int))
(assert (and (= (ep sendT0_119) 0) (= (event sendT0_119) T0_119) (= (value sendT0_119) 56)))
(declare-const sendT0_120 (Send Int Int Int Int))
(assert (and (= (ep sendT0_120) 0) (= (event sendT0_120) T0_120) (= (value sendT0_120) 57)))
(declare-const sendT0_121 (Send Int Int Int Int))
(assert (and (= (ep sendT0_121) 0) (= (event sendT0_121) T0_121) (= (value sendT0_121) 58)))
(declare-const sendT0_122 (Send Int Int Int Int))
(assert (and (= (ep sendT0_122) 0) (= (event sendT0_122) T0_122) (= (value sendT0_122) 59)))
(declare-const sendT0_123 (Send Int Int Int Int))
(assert (and (= (ep sendT0_123) 0) (= (event sendT0_123) T0_123) (= (value sendT0_123) 60)))
(declare-const sendT0_124 (Send Int Int Int Int))
(assert (and (= (ep sendT0_124) 0) (= (event sendT0_124) T0_124) (= (value sendT0_124) 61)))
(declare-const sendT0_125 (Send Int Int Int Int))
(assert (and (= (ep sendT0_125) 0) (= (event sendT0_125) T0_125) (= (value sendT0_125) 62)))
(assert (= (nearestwait recvT0_2) T0_189))
(assert (= (nearestwait recvT0_3) T0_190))
(assert (= (nearestwait recvT0_4) T0_191))
(assert (= (nearestwait recvT0_5) T0_192))
(assert (= (nearestwait recvT0_6) T0_193))
(assert (= (nearestwait recvT0_7) T0_194))
(assert (= (nearestwait recvT0_8) T0_195))
(assert (= (nearestwait recvT0_9) T0_196))
(assert (= (nearestwait recvT0_10) T0_197))
(assert (= (nearestwait recvT0_19) T0_198))
(assert (= (nearestwait recvT0_20) T0_199))
(assert (= (nearestwait recvT0_21) T0_200))
(assert (= (nearestwait recvT0_22) T0_201))
(assert (= (nearestwait recvT0_23) T0_202))
(assert (= (nearestwait recvT0_24) T0_203))
(assert (= (nearestwait recvT0_25) T0_204))
(assert (= (nearestwait recvT0_39) T0_205))
(assert (= (nearestwait recvT0_40) T0_206))
(assert (= (nearestwait recvT0_41) T0_207))
(assert (= (nearestwait recvT0_42) T0_208))
(assert (= (nearestwait recvT0_43) T0_209))
(assert (= (nearestwait recvT0_44) T0_210))
(assert (= (nearestwait recvT0_53) T0_211))
(assert (= (nearestwait recvT0_54) T0_212))
(assert (= (nearestwait recvT0_55) T0_213))
(assert (= (nearestwait recvT0_56) T0_214))
(assert (= (nearestwait recvT0_57) T0_215))
(assert (= (nearestwait recvT0_58) T0_216))
(assert (= (nearestwait recvT0_59) T0_217))
(assert (= (nearestwait recvT0_60) T0_218))
(assert (= (nearestwait recvT0_61) T0_219))
(assert (= (nearestwait recvT0_62) T0_220))
(assert (= (nearestwait recvT0_63) T0_221))
(assert (= (nearestwait recvT0_64) T0_222))
(assert (= (nearestwait recvT0_65) T0_223))
(assert (= (nearestwait recvT0_66) T0_224))
(assert (= (nearestwait recvT0_67) T0_225))
(assert (= (nearestwait recvT0_68) T0_226))
(assert (= (nearestwait recvT0_69) T0_227))
(assert (= (nearestwait recvT0_70) T0_228))
(assert (= (nearestwait recvT0_71) T0_229))
(assert (= (nearestwait recvT0_72) T0_230))
(assert (= (nearestwait recvT0_73) T0_231))
(assert (= (nearestwait recvT0_74) T0_232))
(assert (= (nearestwait recvT0_75) T0_233))
(assert (= (nearestwait recvT0_76) T0_234))
(assert (= (nearestwait recvT0_77) T0_235))
(assert (= (nearestwait recvT0_81) T0_236))
(assert (= (nearestwait recvT0_82) T0_237))
(assert (= (nearestwait recvT0_83) T0_238))
(assert (= (nearestwait recvT0_87) T0_239))
(assert (= (nearestwait recvT0_88) T0_240))
(assert (= (nearestwait recvT0_89) T0_241))
(assert (= (nearestwait recvT0_90) T0_242))
(assert (= (nearestwait recvT0_91) T0_243))
(assert (= (nearestwait recvT0_92) T0_244))
(assert (= (nearestwait recvT0_110) T0_245))
(assert (= (nearestwait recvT0_111) T0_246))
(assert (= (nearestwait recvT0_112) T0_247))
(assert (= (nearestwait recvT0_113) T0_248))
(assert (= (nearestwait recvT0_114) T0_249))
(assert (= (nearestwait recvT0_115) T0_250))
(assert (= (nearestwait recvT0_116) T0_251))

(assert (and
(HB T0_0 T0_1) (HB T0_2 T0_3) (HB T0_3 T0_4) (HB T0_4 T0_5) (HB T0_5 T0_6) (HB T0_6 T0_7) (HB T0_7 T0_8) (HB T0_8 T0_9) (HB T0_9 T0_10) (HB T0_1 T0_11) (HB T0_11 T0_12) (HB T0_12 T0_13) (HB T0_13 T0_14) (HB T0_14 T0_15) (HB T0_15 T0_16) (HB T0_16 T0_17) (HB T0_17 T0_18) (HB T0_10 T0_19) (HB T0_19 T0_20) (HB T0_20 T0_21) (HB T0_21 T0_22) (HB T0_22 T0_23) (HB T0_23 T0_24) (HB T0_24 T0_25) (HB T0_18 T0_26) (HB T0_26 T0_27) (HB T0_27 T0_28) (HB T0_28 T0_29) (HB T0_29 T0_30) (HB T0_30 T0_31) (HB T0_31 T0_32) (HB T0_32 T0_33) (HB T0_33 T0_34) (HB T0_34 T0_35) (HB T0_35 T0_36) (HB T0_36 T0_37) (HB T0_37 T0_38) (HB T0_25 T0_39) (HB T0_39 T0_40) (HB T0_40 T0_41) (HB T0_41 T0_42) (HB T0_42 T0_43) (HB T0_43 T0_44) (HB T0_38 T0_45) (HB T0_45 T0_46) (HB T0_46 T0_47) (HB T0_47 T0_48) (HB T0_48 T0_49) (HB T0_49 T0_50) (HB T0_50 T0_51) (HB T0_51 T0_52) (HB T0_44 T0_53) (HB T0_53 T0_54) (HB T0_54 T0_55) (HB T0_55 T0_56) (HB T0_56 T0_57) (HB T0_57 T0_58) (HB T0_58 T0_59) (HB T0_59 T0_60) (HB T0_60 T0_61) (HB T0_61 T0_62) (HB T0_62 T0_63) (HB T0_63 T0_64) (HB T0_64 T0_65) (HB T0_65 T0_66) (HB T0_66 T0_67) (HB T0_67 T0_68) (HB T0_68 T0_69) (HB T0_69 T0_70) (HB T0_70 T0_71) (HB T0_71 T0_72) (HB T0_72 T0_73) (HB T0_73 T0_74) (HB T0_74 T0_75) (HB T0_75 T0_76) (HB T0_76 T0_77) (HB T0_52 T0_78) (HB T0_78 T0_79) (HB T0_79 T0_80) (HB T0_77 T0_81) (HB T0_81 T0_82) (HB T0_82 T0_83) (HB T0_80 T0_84) (HB T0_84 T0_85) (HB T0_85 T0_86) (HB T0_83 T0_87) (HB T0_87 T0_88) (HB T0_88 T0_89) (HB T0_89 T0_90) (HB T0_90 T0_91) (HB T0_91 T0_92) (HB T0_86 T0_93) (HB T0_93 T0_94) (HB T0_94 T0_95) (HB T0_95 T0_96) (HB T0_96 T0_97) (HB T0_97 T0_98) (HB T0_98 T0_99) (HB T0_99 T0_100) (HB T0_100 T0_101) (HB T0_101 T0_102) (HB T0_102 T0_103) (HB T0_103 T0_104) (HB T0_104 T0_105) (HB T0_105 T0_106) (HB T0_106 T0_107) (HB T0_107 T0_108) (HB T0_108 T0_109) (HB T0_92 T0_110) (HB T0_110 T0_111) (HB T0_111 T0_112) (HB T0_112 T0_113) (HB T0_113 T0_114) (HB T0_114 T0_115) (HB T0_115 T0_116) (HB T0_109 T0_117) (HB T0_117 T0_118) (HB T0_118 T0_119) (HB T0_119 T0_120) (HB T0_120 T0_121) (HB T0_121 T0_122) (HB T0_122 T0_123) (HB T0_123 T0_124) (HB T0_124 T0_125) (HB T0_2 T0_189) (HB T0_3 T0_190) (HB T0_4 T0_191) (HB T0_5 T0_192) (HB T0_6 T0_193) (HB T0_7 T0_194) (HB T0_8 T0_195) (HB T0_9 T0_196) (HB T0_10 T0_197) (HB T0_19 T0_198) (HB T0_20 T0_199) (HB T0_21 T0_200) (HB T0_22 T0_201) (HB T0_23 T0_202) (HB T0_24 T0_203) (HB T0_25 T0_204) (HB T0_39 T0_205) (HB T0_40 T0_206) (HB T0_41 T0_207) (HB T0_42 T0_208) (HB T0_43 T0_209) (HB T0_44 T0_210) (HB T0_53 T0_211) (HB T0_54 T0_212) (HB T0_55 T0_213) (HB T0_56 T0_214) (HB T0_57 T0_215) (HB T0_58 T0_216) (HB T0_59 T0_217) (HB T0_60 T0_218) (HB T0_61 T0_219) (HB T0_62 T0_220) (HB T0_63 T0_221) (HB T0_64 T0_222) (HB T0_65 T0_223) (HB T0_66 T0_224) (HB T0_67 T0_225) (HB T0_68 T0_226) (HB T0_69 T0_227) (HB T0_70 T0_228) (HB T0_71 T0_229) (HB T0_72 T0_230) (HB T0_73 T0_231) (HB T0_74 T0_232) (HB T0_75 T0_233) (HB T0_76 T0_234) (HB T0_77 T0_235) (HB T0_81 T0_236) (HB T0_82 T0_237) (HB T0_83 T0_238) (HB T0_87 T0_239) (HB T0_88 T0_240) (HB T0_89 T0_241) (HB T0_90 T0_242) (HB T0_91 T0_243) (HB T0_92 T0_244) (HB T0_110 T0_245) (HB T0_111 T0_246) (HB T0_112 T0_247) (HB T0_113 T0_248) (HB T0_114 T0_249) (HB T0_115 T0_250) (HB T0_116 T0_251) ))


(assert (and
(or (MATCH recvT0_39 sendT0_32) )
(or (MATCH recvT0_69 sendT0_94) )
(or (MATCH recvT0_68 sendT0_93) )
(or (MATCH recvT0_67 sendT0_86) )
(or (MATCH recvT0_66 sendT0_85) )
(or (MATCH recvT0_65 sendT0_84) )
(or (MATCH recvT0_64 sendT0_80) )
(or (MATCH recvT0_63 sendT0_79) )
(or (MATCH recvT0_62 sendT0_78) )
(or (MATCH recvT0_61 sendT0_52) )
(or (MATCH recvT0_92 sendT0_118) )
(or (MATCH recvT0_60 sendT0_51) )
(or (MATCH recvT0_91 sendT0_117) )
(or (MATCH recvT0_90 sendT0_109) )
(or (MATCH recvT0_9 sendT0_16) )
(or (MATCH recvT0_8 sendT0_15) )
(or (MATCH recvT0_7 sendT0_14) )
(or (MATCH recvT0_6 sendT0_13) )
(or (MATCH recvT0_5 sendT0_12) )
(or (MATCH recvT0_4 sendT0_11) )
(or (MATCH recvT0_3 sendT0_1) )
(or (MATCH recvT0_2 sendT0_0) )
(or (MATCH recvT0_59 sendT0_50) )
(or (MATCH recvT0_58 sendT0_49) )
(or (MATCH recvT0_89 sendT0_108) )
(or (MATCH recvT0_25 sendT0_31) )
(or (MATCH recvT0_57 sendT0_48) )
(or (MATCH recvT0_88 sendT0_107) )
(or (MATCH recvT0_24 sendT0_30) )
(or (MATCH recvT0_56 sendT0_47) )
(or (MATCH recvT0_87 sendT0_106) )
(or (MATCH recvT0_23 sendT0_29) )
(or (MATCH recvT0_55 sendT0_46) )
(or (MATCH recvT0_22 sendT0_28) )
(or (MATCH recvT0_54 sendT0_45) )
(or (MATCH recvT0_21 sendT0_27) )
(or (MATCH recvT0_53 sendT0_38) )
(or (MATCH recvT0_20 sendT0_26) )
(or (MATCH recvT0_83 sendT0_105) )
(or (MATCH recvT0_82 sendT0_104) )
(or (MATCH recvT0_81 sendT0_103) )
(or (MATCH recvT0_116 sendT0_125) )
(or (MATCH recvT0_115 sendT0_124) )
(or (MATCH recvT0_114 sendT0_123) )
(or (MATCH recvT0_113 sendT0_122) )
(or (MATCH recvT0_19 sendT0_18) )
(or (MATCH recvT0_112 sendT0_121) )
(or (MATCH recvT0_111 sendT0_120) )
(or (MATCH recvT0_110 sendT0_119) )
(or (MATCH recvT0_77 sendT0_102) )
(or (MATCH recvT0_76 sendT0_101) )
(or (MATCH recvT0_44 sendT0_37) )
(or (MATCH recvT0_75 sendT0_100) )
(or (MATCH recvT0_43 sendT0_36) )
(or (MATCH recvT0_74 sendT0_99) )
(or (MATCH recvT0_10 sendT0_17) )
(or (MATCH recvT0_42 sendT0_35) )
(or (MATCH recvT0_73 sendT0_98) )
(or (MATCH recvT0_41 sendT0_34) )
(or (MATCH recvT0_72 sendT0_97) )
(or (MATCH recvT0_40 sendT0_33) )
(or (MATCH recvT0_71 sendT0_96) )
(or (MATCH recvT0_70 sendT0_95) )
))


(check-sat)
